(synth-fun lemma ((x Int) (y Int) (nil Int)) Bool

           ((Start Bool) (S (Set Int)) (Loc Int))

           ((Start Bool (
                   (=> Start Start)
                   (member Loc S)
                   (lst Loc)
                   (lseg Loc Loc)))
            (S (Set Int) (
               (hlst Loc)))
            (Loc Int (x y nil)))
)

(synth-fun rswitch () Int

           ((Start Int))
           ((Start Int (0 1)))

)
